Version identifier: 20.1.0.0 | 2020-11-10 | 9bedb6d68
CPXPARAM_Threads                                 1
CPXPARAM_TimeLimit                               100
Generic callback                                 0xfe
Tried aggregator 1 time.
MIP Presolve eliminated 4 rows and 8 columns.
MIP Presolve modified 6 coefficients.
Reduced MIP has 38 rows, 155 columns, and 423 nonzeros.
Reduced MIP has 154 binaries, 0 generals, 0 SOSs, and 0 indicators.
Presolve time = 0.00 sec. (0.20 ticks)
Probing time = 0.00 sec. (0.15 ticks)
Tried aggregator 1 time.
Reduced MIP has 38 rows, 155 columns, and 423 nonzeros.
Reduced MIP has 154 binaries, 0 generals, 0 SOSs, and 0 indicators.
Presolve time = 0.00 sec. (0.19 ticks)
Probing time = 0.00 sec. (0.15 ticks)
Clique table members: 153.
MIP emphasis: balance optimality and feasibility.
MIP search method: dynamic search.
Parallel mode: none, using 1 thread.
Root relaxation solution time = 0.00 sec. (0.08 ticks)

        Nodes                                         Cuts/
   Node  Left     Objective  IInf  Best Integer    Best Bound    ItCnt     Gap

      0     0    11238.5933    17                      0.0000        1         
      0     0    11255.5505    19                    Fract: 2       11         
*     0+    0                        15332.5600    11255.5505            26.59%
      0     0    11458.2457    16    15332.5600      Fract: 1       20   25.27%
      0     0    11463.3564    23    15332.5600 UserPurge1: 1       23   25.24%
      0     2    11474.3291    25    15332.5600    11519.8760       23   24.87%
Elapsed time = 1.33 sec. (10.60 ticks, tree = 0.01 MB, solutions = 1)

Gomory fractional cuts applied:  1
User cuts applied:  39

Root node processing (before b&c):
  Real time             =    1.33 sec. (10.60 ticks)
Sequential b&c:
  Real time             =    0.01 sec. (9.64 ticks)
                          ------------
Total (root+branch&cut) =    1.35 sec. (20.25 ticks)
SOLUTION ADMISSIBLE TROUVEE 15332.560000000001 15332.560000000001 63.0 66.0
